26,350
438,121
96,348
506,270
309,129
40,344
71,141
584,217
553,396
185,128
562,188
184,149
105,148
176,397
570,369
315,395
214,223
310,383
146,226
42,51
282,144
202,379
165,386
574,31
12,28
256,261
237,92
218,86
34,288
528,356
